11086.0
1 0 1 0 0 1 0 0 1 0 0 1 0 0 1 0 0 1 0 0 1 0 0 0 1 0 0 0 0 0 
21 38 40 46 58 60 67 81 87 92 94 101 106 125 128 130 136 139 140 148 

3 6 20 26 90 96 97 104 112 


5 18 22 24 28 30 50 53 61 68 89 95 105 120 126 129 133 137 147 


11 12 25 43 49 75 100 109 121 124 134 141 144 


1 19 31 33 48 57 63 64 65 72 93 98 103 107 113 114 115 122 131 145 146 


8 15 16 39 41 45 51 52 59 78 102 108 110 111 135 143 


9 14 17 23 56 73 83 84 85 86 


0 2 4 13 32 34 35 47 54 55 62 70 71 77 80 82 88 99 123 138 142 



7 10 27 29 36 37 42 44 66 69 74 76 79 91 116 117 118 119 127 132 149 





